9,1,10,2,3,3,2,7,5,5,7,5,4,8,8,8,1,9,6,10;7,2,10,3,4,3,3,4,9,5,8,5,2,8,5,10;5,2,2,5,8,4,9,6,1,6,5,6,6,6,7,7,10,10;10,1,2,2,5,1,9,3,8,3,4,5,7,4,3,9,3,10,6,9,1,10;1,1,8,1,2,4,6,2,4,4,7,3,9,7,10,8,3,8;2,1,2,3,1,4,6,3,3,6,8,6,9,8,4,7,10,9,5,8,7,8;9,2,1,3,8,2,3,5,6,4,4,6,10,7,5,7,7,9;7,1,4,1,6,1,9,4,1,5,10,5,3,7,2,9,8,7,6,7,1,8,5,9;1,2,10,4,2,6,5,4,6,5,9,9,7,6,8,9,4,10;3,1,3,2,4,2,5,3,10,6,1,7,2,10,9,10,6,8,4,9,8,10,7,10;
